n = 35;
m = 5;

opiniones_iniciales = [10, 5, 12, 3, 5];

valores_opiniones = [0.027, 0.218, 0.35, 0.602, 0.605];

costos_extras = [2.076, 4.816, 12.739, 8.429, 5.406];

costos_desplazamiento = [|
    0.0, 1.055, 1.36, 1.386, 2.606
    | 1.251, 0.0, 4.793, 2.937, 2.672
    | 1.502, 0.414, 0.0, 2.72, 0.941
    | 2.252, 3.923, 2.154, 0.0, 3.093
    | 3.913, 3.273, 0.203, 1.195, 0.0 |];

ct = 3.43;

maxMovs = 16;
